Route #1: 26
Route #2: 111 76
Route #3: 86 96
Route #4: 31 60
Route #5: 38 102
Route #6: 14 97 74 92 42 52 44 123
Route #7: 15 78 28 124 50
Route #8: 59 9 19 11 114 87
Route #9: 2 34 6 70 115 88 105 51
Route #10: 66 89 116 17 81 16
Route #11: 43 106 61
Route #12: 83 21
Route #13: 18 10
Route #14: 57 120
Route #15: 35 8
Route #16: 113 33 5
Route #17: 32 75
Route #18: 37 53
Route #19: 69 98
Route #20: 29 104 119 45
Route #21: 71 41 107
Route #22: 58 4 80 65 47 68 118 25 109 36
Route #23: 117 55 27 30 85 62 108
Route #24: 84 95 94 22 40 63 79 46 1
Route #25: 20 101 7 77 64 54 121
Route #26: 48 39 72 67
Route #27: 103 12
Route #28: 100 99
Route #29: 91 112
Route #30: 122 73
Route #31: 110 13 49 82
Route #32: 56 23 24
Route #33: 3 90 93
Cost 61271
